AES/1_5_4/ssaes_r1-20_c5_rw1_e4_f0_k1-20_aes_min_box_aes_mc_bidirectional/ExperimentMinisat_r20_k5cnf_2011-10-29-183315/Result
WARNING: for repeatability, setting FPU to use double precision
============================[ Problem Statistics ]=============================
|                                                                             |
|  Number of variables:          1820                                         |
|  Number of clauses:            7520                                         |
|  Parse time:                   0.00 s                                       |
|  Eliminated clauses:           0.02 Mb                                      |
|  Simplification time:          0.01 s                                       |
|                                                                             |
=============================[ Search Statistics ]==============================
| Conflicts  |          ORIGINAL         |          LEARNT          | Progress |
|            |    Vars  Clauses Literals |    Limit  Clauses Lit/Cl |          |
================================================================================
|        100 |    1280     5800    19280 |     2126      100      9 |  6.593 % |
|        250 |    1280     5800    19280 |     2339      250     11 |  6.593 % |
|        475 |    1280     5800    19280 |     2573      475     13 |  6.593 % |
|        812 |    1280     5800    19280 |     2830      812     14 |  6.593 % |
|       1318 |    1280     5800    19280 |     3113     1318     15 |  6.593 % |
|       2077 |    1280     5800    19280 |     3425     2077     16 |  6.593 % |
|       3216 |    1280     5800    19280 |     3767     3216     17 |  6.593 % |
|       4924 |    1280     5800    19280 |     4144     2963     17 |  6.593 % |
|       7486 |    1280     5800    19280 |     4558     3371     18 |  6.593 % |
|      11330 |    1280     5800    19280 |     5014     2496     12 |  6.593 % |
|      17096 |    1280     5800    19280 |     5516     3083     13 |  6.593 % |
|      25745 |    1280     5800    19280 |     6067     3199     14 |  6.593 % |
|      38719 |    1280     5800    19280 |     6674     3734     13 |  6.593 % |
|      58180 |    1280     5800    19280 |     7341     6072     16 |  6.593 % |
|      87372 |    1280     5800    19280 |     8076     5220     15 |  6.593 % |
|     131161 |    1280     5800    19280 |     8883     7840     18 |  6.593 % |
===============================================================================
restarts              : 412
conflicts             : 153142         (9636 /sec)
decisions             : 180089         (0.00 % random) (11332 /sec)
propagations          : 70988778       (4466787 /sec)
conflict literals     : 3536709        (50.60 % deleted)
Memory used           : 9.00 MB
CPU time              : 15.8926 s

SATISFIABLE
